n = 27;
lu = [|-574, 393
      |-21, 496
      |-138, 511
      |-552, 316
      |-25, 75
      |-691, 121
      |-663, -517
      |181, 606
      |-269, -14
      |-554, 290
      |-55, 515
      |130, 381
      |-321, 186
      |-380, -280
      |106, 159
      |651, 671
      |343, 423
      |-327, 384
      |136, 651
      |-160, -118
      |-279, 319
      |112, 238
      |-435, 327
      |-117, -101
      |473, 720
      |236, 592
      |84, 536|];
